NAME          COPTPROB
OBJSENSE
  MIN
ROWS
 N  __OBJ___
 L  C0      
 L  C1      
 L  C2      
 L  C3      
 L  C4      
 L  C7      
 L  C8      
 L  C13     
 L  C14     
 L  C15     
 L  C17     
 L  C18     
 L  C21     
 L  C22     
 L  C23     
 L  C24     
 L  C26     
 L  C30     
 L  C34     
 L  C35     
 L  C37     
 L  C39     
 L  C43     
 L  C45     
 L  C47     
 L  C50     
 L  C51     
 L  C52     
 L  C53     
 L  C54     
 L  C59     
 L  C60     
 L  C62     
 L  C63     
 L  C65     
 L  C66     
 L  C67     
 L  C70     
 L  C71     
 L  C72     
 L  C80     
 L  C84     
 L  C85     
 L  C86     
 L  C87     
 L  C88     
 L  C90     
 L  C92     
 L  C93     
 L  C94     
 L  C95     
 L  C96     
 L  C100    
 L  C102    
 L  C105    
 L  C106    
 L  C107    
 L  C108    
 L  C109    
 L  C111    
 L  C112    
 L  C115    
 L  C116    
 L  C117    
 L  C119    
 L  C121    
 L  C122    
 L  C123    
 L  C124    
 L  C126    
 L  C128    
 L  C129    
 L  C130    
 L  C133    
 L  C135    
 L  C137    
 L  C138    
 L  C140    
 L  C141    
 L  C143    
 L  C145    
 L  C149    
 L  C150    
 L  C153    
 L  C154    
 L  C155    
 L  C157    
 L  C158    
 L  C159    
 L  C160    
 L  C161    
 L  C162    
 L  C163    
 L  C165    
 L  C166    
 L  C171    
 L  C172    
 L  C173    
 L  C174    
 L  C177    
 L  C179    
 L  C180    
 L  C181    
 L  C182    
 L  C185    
 L  C187    
 L  C190    
 L  C192    
 L  C194    
 L  C201    
 L  C202    
 L  C204    
 L  C205    
 L  C206    
 L  C210    
 L  C212    
 L  C213    
 L  C216    
 L  C222    
 L  C223    
 L  C224    
 L  C227    
 L  C228    
 L  C229    
 L  C232    
 L  C233    
 L  C234    
 L  C236    
 L  C237    
 L  C239    
 L  C240    
 L  C244    
 L  C245    
 L  C247    
 L  C248    
 L  C250    
 L  C251    
 L  C253    
 L  C258    
 L  C260    
 L  C262    
 L  C263    
 L  C264    
 L  C265    
 L  C268    
 L  C269    
 L  C271    
 L  C274    
 L  C276    
 L  C278    
 L  C279    
 L  C280    
 L  C281    
 L  C282    
 L  C285    
 L  C286    
 L  C287    
 L  C288    
 L  C289    
 L  C290    
 L  C295    
 L  C296    
 L  C297    
 L  C301    
 L  C302    
 L  C303    
 L  C304    
 L  C307    
 L  C309    
 L  C311    
 L  C313    
 L  C315    
 L  C318    
 L  C319    
 L  C320    
 L  C322    
 L  C323    
 L  C324    
 L  C331    
 L  C332    
 L  C333    
 L  C334    
 L  C335    
 L  C337    
 L  C338    
 L  C339    
 L  C341    
 L  C343    
 L  C344    
 L  C347    
 L  C348    
 L  C352    
 L  C354    
 L  C357    
 L  C359    
 L  C360    
 L  C361    
 L  C363    
 L  C364    
 L  C365    
 L  C369    
 L  C370    
 L  C371    
 L  C372    
 L  C373    
 L  C377    
 L  C378    
 L  C380    
 L  C384    
 L  C385    
 L  C389    
 L  C390    
 L  C394    
 L  C395    
 L  C397    
 L  C398    
COLUMNS
    MARKER    'MARKER'                 'INTORG'
    x1        __OBJ___  120
    x1        C7        -1
    x1        C106      -1
    x1        C285      -1
    x2        __OBJ___  11
    x2        C88       -1
    x2        C212      -1
    x2        C232      -1
    x3        __OBJ___  115
    x3        C100      -1
    x3        C160      -1
    x3        C162      -1
    x3        C204      -1
    x3        C289      -1
    x3        C359      -1
    x4        __OBJ___  120
    x4        C26       -1
    x4        C141      -1
    x4        C361      -1
    x4        C364      -1
    x4        C390      -1
    x4        C398      -1
    x6        __OBJ___  262
    x6        C116      -1
    x6        C174      -1
    x6        C190      -1
    x6        C236      -1
    x6        C265      -1
    x6        C307      -1
    x7        __OBJ___  354
    x7        C117      -1
    x7        C154      -1
    x7        C179      -1
    x8        __OBJ___  179
    x8        C30       -1
    x8        C135      -1
    x8        C269      -1
    x8        C290      -1
    x9        __OBJ___  948
    x9        C119      -1
    x9        C122      -1
    x9        C332      -1
    x9        C373      -1
    x9        C378      -1
    x10       __OBJ___  774
    x10       C102      -1
    x10       C150      -1
    x10       C216      -1
    x10       C365      -1
    x13       __OBJ___  144
    x13       C92       -1
    x13       C153      -1
    x13       C281      -1
    x14       __OBJ___  376
    x14       C65       -1
    x14       C158      -1
    x14       C271      -1
    x14       C286      -1
    x14       C384      -1
    x15       __OBJ___  521
    x15       C288      -1
    x15       C313      -1
    x15       C341      -1
    x15       C372      -1
    x15       C380      -1
    x15       C395      -1
    x16       __OBJ___  744
    x16       C90       -1
    x16       C194      -1
    x16       C331      -1
    x20       __OBJ___  256
    x20       C105      -1
    x20       C260      -1
    x25       __OBJ___  267
    x25       C145      -1
    x25       C234      -1
    x25       C287      -1
    x26       __OBJ___  308
    x26       C87       -1
    x26       C253      -1
    x26       C302      -1
    x27       __OBJ___  614
    x27       C59       -1
    x27       C149      -1
    x27       C182      -1
    x30       __OBJ___  311
    x30       C37       -1
    x30       C237      -1
    x30       C324      -1
    x32       __OBJ___  128
    x32       C165      -1
    x32       C397      -1
    x36       __OBJ___  76
    x36       C47       -1
    x36       C210      -1
    x38       __OBJ___  511
    x38       C121      -1
    x38       C251      -1
    x38       C320      -1
    x39       __OBJ___  204
    x39       C107      -1
    x39       C233      -1
    x39       C304      -1
    x39       C322      -1
    x40       __OBJ___  259
    x40       C39       -1
    x40       C222      -1
    x43       __OBJ___  854
    x43       C129      -1
    x43       C157      -1
    x43       C309      -1
    x43       C363      -1
    x47       __OBJ___  340
    x47       C45       -1
    x47       C335      -1
    x49       __OBJ___  420
    x49       C115      -1
    x49       C280      -1
    x51       __OBJ___  435
    x51       C133      -1
    x51       C159      -1
    x51       C161      -1
    x51       C385      -1
    x53       __OBJ___  962
    x53       C53       -1
    x53       C112      -1
    x53       C166      -1
    x53       C244      -1
    x54       __OBJ___  138
    x54       C0        -1
    x54       C301      -1
    x57       __OBJ___  647
    x57       C2        -1
    x57       C51       -1
    x57       C84       -1
    x57       C95       -1
    x57       C229      -1
    x57       C248      -1
    x57       C296      -1
    x58       __OBJ___  627
    x58       C128      -1
    x58       C303      -1
    x59       __OBJ___  476
    x59       C3        -1
    x59       C24       -1
    x59       C223      -1
    x59       C318      -1
    x59       C323      -1
    x61       __OBJ___  86
    x61       C1        -1
    x61       C245      -1
    x61       C339      -1
    x62       __OBJ___  386
    x62       C18       -1
    x62       C67       -1
    x62       C70       -1
    x62       C155      -1
    x62       C239      -1
    x62       C279      -1
    x62       C311      -1
    x62       C343      -1
    x67       __OBJ___  223
    x67       C14       -1
    x67       C63       -1
    x67       C93       -1
    x68       __OBJ___  166
    x68       C140      -1
    x68       C389      -1
    x69       __OBJ___  786
    x69       C4        -1
    x69       C206      -1
    x69       C348      -1
    x73       __OBJ___  516
    x73       C80       -1
    x73       C297      -1
    x73       C334      -1
    x73       C347      -1
    x77       __OBJ___  664
    x77       C109      -1
    x77       C137      -1
    x77       C274      -1
    x77       C276      -1
    x77       C282      -1
    x78       __OBJ___  315
    x78       C85       -1
    x78       C263      -1
    x78       C337      -1
    x79       __OBJ___  325
    x79       C8        -1
    x79       C369      -1
    x80       __OBJ___  455
    x80       C86       -1
    x80       C94       -1
    x80       C192      -1
    x82       __OBJ___  661
    x82       C21       -1
    x82       C62       -1
    x82       C111      -1
    x82       C250      -1
    x83       __OBJ___  274
    x83       C52       -1
    x83       C126      -1
    x83       C138      -1
    x83       C187      -1
    x83       C357      -1
    x87       __OBJ___  118
    x87       C15       -1
    x87       C50       -1
    x87       C66       -1
    x87       C202      -1
    x87       C227      -1
    x90       __OBJ___  738
    x90       C130      -1
    x90       C172      -1
    x90       C201      -1
    x90       C338      -1
    x92       __OBJ___  640
    x92       C43       -1
    x92       C60       -1
    x92       C96       -1
    x93       __OBJ___  703
    x93       C22       -1
    x93       C34       -1
    x93       C352      -1
    x93       C371      -1
    x96       __OBJ___  442
    x96       C17       -1
    x96       C71       -1
    x96       C123      -1
    x96       C124      -1
    x96       C143      -1
    x96       C213      -1
    x97       __OBJ___  292
    x97       C240      -1
    x97       C264      -1
    x97       C295      -1
    x97       C319      -1
    x97       C360      -1
    x98       __OBJ___  490
    x98       C30       -1
    x98       C180      -1
    x98       C206      -1
    x98       C394      -1
    x99       __OBJ___  343
    x99       C15       -1
    x99       C335      -1
    x100      __OBJ___  465
    x100      C50       -1
    x100      C227      -1
    x100      C371      -1
    x101      __OBJ___  86
    x101      C224      -1
    x101      C250      -1
    x101      C398      -1
    x102      __OBJ___  224
    x102      C216      -1
    x102      C236      -1
    x102      C313      -1
    x102      C363      -1
    x103      __OBJ___  527
    x103      C290      -1
    x103      C296      -1
    x105      __OBJ___  691
    x105      C159      -1
    x105      C251      -1
    x105      C268      -1
    x106      __OBJ___  106
    x106      C166      -1
    x106      C385      -1
    x108      __OBJ___  111
    x108      C285      -1
    x108      C322      -1
    x108      C361      -1
    x109      __OBJ___  72
    x109      C129      -1
    x109      C384      -1
    x110      __OBJ___  724
    x110      C22       -1
    x110      C116      -1
    x110      C348      -1
    x111      __OBJ___  93
    x111      C205      -1
    x111      C304      -1
    x112      __OBJ___  573
    x112      C51       -1
    x112      C192      -1
    x112      C210      -1
    x113      __OBJ___  426
    x113      C24       -1
    x113      C263      -1
    x116      __OBJ___  416
    x116      C344      -1
    x116      C352      -1
    x117      __OBJ___  497
    x117      C62       -1
    x117      C87       -1
    x119      __OBJ___  344
    x119      C54       -1
    x119      C67       -1
    x119      C111      -1
    x119      C223      -1
    x120      __OBJ___  611
    x120      C66       -1
    x120      C202      -1
    x120      C253      -1
    x120      C304      -1
    x120      C364      -1
    x122      __OBJ___  116
    x122      C105      -1
    x122      C378      -1
    x126      __OBJ___  9
    x126      C111      -1
    x126      C258      -1
    x127      __OBJ___  493
    x127      C84       -1
    x128      __OBJ___  103
    x128      C95       -1
    x128      C163      -1
    x129      __OBJ___  236
    x129      C185      -1
    x129      C268      -1
    x132      __OBJ___  210
    x132      C100      -1
    x132      C233      -1
    x132      C239      -1
    x133      __OBJ___  590
    x133      C26       -1
    x133      C117      -1
    x133      C210      -1
    x133      C245      -1
    x133      C281      -1
    x137      __OBJ___  403
    x137      C52       -1
    x137      C124      -1
    x137      C128      -1
    x137      C210      -1
    x137      C269      -1
    x137      C341      -1
    x137      C343      -1
    x138      __OBJ___  316
    x138      C165      -1
    x138      C260      -1
    x143      __OBJ___  459
    x143      C122      -1
    x143      C177      -1
    x143      C264      -1
    x144      __OBJ___  705
    x144      C22       -1
    x144      C54       -1
    x147      __OBJ___  771
    x147      C43       -1
    x147      C222      -1
    x147      C285      -1
    x147      C363      -1
    x152      __OBJ___  697
    x152      C47       -1
    x152      C93       -1
    x152      C145      -1
    x152      C244      -1
    x152      C359      -1
    x154      __OBJ___  157
    x154      C2        -1
    x154      C119      -1
    x155      __OBJ___  741
    x155      C158      -1
    x155      C324      -1
    x155      C338      -1
    x158      __OBJ___  829
    x158      C102      -1
    x158      C145      -1
    x158      C286      -1
    x158      C289      -1
    x159      __OBJ___  424
    x159      C116      -1
    x159      C143      -1
    x160      __OBJ___  170
    x160      C13       -1
    x160      C395      -1
    x161      __OBJ___  982
    x161      C17       -1
    x161      C205      -1
    x161      C318      -1
    x161      C333      -1
    x161      C343      -1
    x161      C364      -1
    x162      __OBJ___  986
    x162      C244      -1
    x162      C282      -1
    x162      C373      -1
    x164      __OBJ___  30
    x164      C1        -1
    x165      __OBJ___  575
    x165      C47       -1
    x165      C80       -1
    x165      C269      -1
    x165      C288      -1
    x168      __OBJ___  397
    x168      C35       -1
    x168      C39       -1
    x168      C71       -1
    x171      __OBJ___  612
    x171      C26       -1
    x171      C35       -1
    x171      C39       -1
    x171      C244      -1
    x172      __OBJ___  87
    x172      C141      -1
    x172      C279      -1
    x174      __OBJ___  398
    x174      C67       -1
    x174      C364      -1
    x175      __OBJ___  38
    x175      C171      -1
    x175      C187      -1
    x175      C194      -1
    x175      C287      -1
    x176      __OBJ___  739
    x176      C17       -1
    x176      C123      -1
    x176      C237      -1
    x176      C344      -1
    x177      __OBJ___  131
    x177      C0        -1
    x177      C315      -1
    x178      __OBJ___  255
    x178      C35       -1
    x178      C278      -1
    x179      __OBJ___  287
    x179      C289      -1
    x179      C338      -1
    x180      __OBJ___  595
    x180      C18       -1
    x180      C202      -1
    x180      C253      -1
    x180      C295      -1
    x183      __OBJ___  489
    x183      C72       -1
    x183      C224      -1
    x187      __OBJ___  548
    x187      C22       -1
    x187      C331      -1
    x189      __OBJ___  512
    x189      C24       -1
    x189      C85       -1
    x190      __OBJ___  824
    x190      C233      -1
    x190      C297      -1
    x190      C390      -1
    x192      __OBJ___  284
    x192      C128      -1
    x192      C397      -1
    x194      __OBJ___  152
    x194      C15       -1
    x194      C301      -1
    x195      __OBJ___  134
    x195      C95       -1
    x195      C124      -1
    x195      C286      -1
    x195      C384      -1
    x196      __OBJ___  149
    x196      C21       -1
    x196      C35       -1
    x197      __OBJ___  625
    x197      C59       -1
    x197      C67       -1
    x197      C155      -1
    x198      __OBJ___  649
    x198      C34       -1
    x198      C137      -1
    x198      C181      -1
    x198      C318      -1
    x200      __OBJ___  139
    x200      C278      -1
    x200      C286      -1
    x200      C339      -1
    x200      C344      -1
    x202      __OBJ___  441
    x202      C108      -1
    x202      C112      -1
    x202      C153      -1
    x202      C245      -1
    x203      __OBJ___  190
    x203      C160      -1
    x203      C165      -1
    x203      C202      -1
    x204      __OBJ___  289
    x204      C8        -1
    x204      C260      -1
    x205      __OBJ___  489
    x205      C7        -1
    x205      C60       -1
    x205      C88       -1
    x205      C174      -1
    x206      __OBJ___  62
    x206      C161      -1
    x206      C343      -1
    x207      __OBJ___  498
    x207      C100      -1
    x207      C130      -1
    x208      __OBJ___  441
    x208      C26       -1
    x208      C87       -1
    x208      C179      -1
    x208      C180      -1
    x208      C347      -1
    x209      __OBJ___  418
    x209      C129      -1
    x209      C318      -1
    x209      C361      -1
    x210      __OBJ___  559
    x210      C117      -1
    x210      C154      -1
    x210      C160      -1
    x210      C268      -1
    x211      __OBJ___  350
    x211      C24       -1
    x211      C380      -1
    x212      __OBJ___  452
    x212      C109      -1
    x212      C185      -1
    x212      C322      -1
    x212      C334      -1
    x213      __OBJ___  58
    x213      C66       -1
    x213      C228      -1
    x213      C339      -1
    x214      __OBJ___  440
    x214      C85       -1
    x214      C289      -1
    x214      C339      -1
    x214      C397      -1
    x216      __OBJ___  146
    x216      C138      -1
    x216      C236      -1
    x216      C265      -1
    x217      __OBJ___  85
    x217      C63       -1
    x217      C202      -1
    x217      C250      -1
    x217      C337      -1
    x219      __OBJ___  55
    x219      C232      -1
    x219      C290      -1
    x219      C311      -1
    x220      __OBJ___  986
    x220      C173      -1
    x220      C274      -1
    x220      C276      -1
    x223      __OBJ___  117
    x223      C123      -1
    x223      C264      -1
    x223      C332      -1
    x223      C378      -1
    x225      __OBJ___  170
    x225      C181      -1
    x225      C264      -1
    x226      __OBJ___  366
    x226      C67       -1
    x226      C324      -1
    x227      __OBJ___  192
    x227      C54       -1
    x227      C373      -1
    x227      C389      -1
    x229      __OBJ___  911
    x229      C62       -1
    x229      C112      -1
    x229      C179      -1
    x230      __OBJ___  20
    x230      C30       -1
    x230      C108      -1
    x230      C185      -1
    x231      __OBJ___  265
    x231      C247      -1
    x231      C320      -1
    x234      __OBJ___  509
    x234      C172      -1
    x234      C181      -1
    x234      C247      -1
    x234      C263      -1
    x235      __OBJ___  465
    x235      C172      -1
    x236      __OBJ___  806
    x236      C37       -1
    x236      C72       -1
    x236      C187      -1
    x236      C389      -1
    x240      __OBJ___  701
    x240      C43       -1
    x240      C94       -1
    x242      __OBJ___  841
    x242      C21       -1
    x242      C54       -1
    x242      C112      -1
    x242      C149      -1
    x243      __OBJ___  384
    x243      C65       -1
    x243      C160      -1
    x243      C385      -1
    x245      __OBJ___  197
    x245      C282      -1
    x245      C344      -1
    x246      __OBJ___  898
    x246      C52       -1
    x246      C348      -1
    x246      C372      -1
    x248      __OBJ___  627
    x248      C158      -1
    x248      C276      -1
    x251      __OBJ___  460
    x251      C115      -1
    x251      C171      -1
    x251      C361      -1
    x254      __OBJ___  162
    x254      C63       -1
    x254      C213      -1
    x256      __OBJ___  308
    x256      C124      -1
    x256      C212      -1
    x256      C236      -1
    x256      C247      -1
    x256      C354      -1
    x260      __OBJ___  395
    x260      C100      -1
    x260      C229      -1
    x260      C279      -1
    x260      C372      -1
    x263      __OBJ___  317
    x263      C87       -1
    x263      C143      -1
    x263      C153      -1
    x263      C224      -1
    x264      __OBJ___  655
    x264      C88       -1
    x264      C100      -1
    x264      C150      -1
    x264      C280      -1
    x264      C302      -1
    x266      __OBJ___  338
    x266      C14       -1
    x266      C88       -1
    x266      C106      -1
    x266      C107      -1
    x268      __OBJ___  402
    x268      C52       -1
    x268      C302      -1
    x268      C377      -1
    x270      __OBJ___  372
    x270      C260      -1
    x270      C285      -1
    x270      C311      -1
    x272      __OBJ___  242
    x272      C4        -1
    x272      C357      -1
    x273      __OBJ___  775
    x273      C3        -1
    x273      C18       -1
    x273      C140      -1
    x273      C163      -1
    x273      C253      -1
    x273      C360      -1
    x275      __OBJ___  708
    x275      C23       -1
    x275      C43       -1
    x275      C281      -1
    x279      __OBJ___  318
    x279      C37       -1
    x279      C108      -1
    x281      __OBJ___  267
    x281      C66       -1
    x281      C95       -1
    x281      C182      -1
    x281      C201      -1
    x282      __OBJ___  206
    x282      C135      -1
    x282      C177      -1
    x282      C236      -1
    x283      __OBJ___  625
    x283      C124      -1
    x283      C157      -1
    x283      C159      -1
    x284      __OBJ___  379
    x284      C66       -1
    x284      C206      -1
    x284      C276      -1
    x284      C344      -1
    x285      __OBJ___  275
    x285      C128      -1
    x285      C157      -1
    x288      __OBJ___  737
    x288      C45       -1
    x288      C133      -1
    x288      C307      -1
    x289      __OBJ___  260
    x289      C3        -1
    x289      C66       -1
    x289      C253      -1
    x289      C288      -1
    x295      __OBJ___  373
    x295      C122      -1
    x295      C165      -1
    x295      C213      -1
    x295      C234      -1
    x298      __OBJ___  812
    x298      C52       -1
    x298      C274      -1
    x298      C281      -1
    x301      __OBJ___  585
    x301      C84       -1
    x301      C181      -1
    x301      C228      -1
    x302      __OBJ___  242
    x302      C85       -1
    x302      C140      -1
    x303      __OBJ___  985
    x303      C60       -1
    x303      C347      -1
    x303      C370      -1
    x304      __OBJ___  720
    x304      C21       -1
    x304      C47       -1
    x304      C121      -1
    x304      C227      -1
    x305      __OBJ___  82
    x305      C322      -1
    x306      __OBJ___  267
    x306      C1        -1
    x306      C4        -1
    x312      __OBJ___  526
    x312      C34       -1
    x312      C115      -1
    x312      C265      -1
    x312      C281      -1
    x315      __OBJ___  469
    x315      C13       -1
    x315      C37       -1
    x315      C158      -1
    x315      C250      -1
    x316      __OBJ___  570
    x316      C121      -1
    x316      C177      -1
    x316      C262      -1
    x317      __OBJ___  470
    x317      C8        -1
    x317      C137      -1
    x318      __OBJ___  361
    x318      C313      -1
    x318      C370      -1
    x319      __OBJ___  416
    x319      C90       -1
    x319      C122      -1
    x319      C251      -1
    x320      __OBJ___  480
    x320      C332      -1
    x320      C341      -1
    x320      C377      -1
    x321      __OBJ___  535
    x321      C130      -1
    x321      C204      -1
    x323      __OBJ___  411
    x323      C173      -1
    x323      C377      -1
    x325      __OBJ___  269
    x325      C96       -1
    x325      C163      -1
    x325      C171      -1
    x325      C180      -1
    x325      C247      -1
    x325      C271      -1
    x327      __OBJ___  306
    x327      C51       -1
    x327      C85       -1
    x327      C384      -1
    x329      __OBJ___  120
    x329      C112      -1
    x329      C140      -1
    x329      C155      -1
    x329      C240      -1
    x331      __OBJ___  226
    x331      C45       -1
    x331      C227      -1
    x334      __OBJ___  421
    x334      C24       -1
    x334      C347      -1
    x335      __OBJ___  57
    x335      C237      -1
    x335      C287      -1
    x338      __OBJ___  320
    x338      C70       -1
    x338      C106      -1
    x338      C365      -1
    x338      C394      -1
    x340      __OBJ___  405
    x340      C87       -1
    x340      C162      -1
    x340      C250      -1
    x344      __OBJ___  273
    x344      C109      -1
    x344      C262      -1
    x344      C307      -1
    x346      __OBJ___  47
    x346      C177      -1
    x346      C323      -1
    x346      C354      -1
    x348      __OBJ___  736
    x348      C86       -1
    x348      C95       -1
    x348      C149      -1
    x348      C264      -1
    x349      __OBJ___  13
    x349      C88       -1
    x349      C365      -1
    x349      C394      -1
    x351      __OBJ___  306
    x351      C47       -1
    x351      C65       -1
    x351      C174      -1
    x351      C309      -1
    x354      __OBJ___  154
    x354      C26       -1
    x354      C202      -1
    x354      C279      -1
    x355      __OBJ___  694
    x355      C96       -1
    x355      C303      -1
    x356      __OBJ___  590
    x356      C319      -1
    x356      C364      -1
    x356      C369      -1
    x358      __OBJ___  334
    x358      C126      -1
    x358      C154      -1
    x358      C205      -1
    x358      C234      -1
    x358      C237      -1
    x362      __OBJ___  575
    x362      C303      -1
    x362      C334      -1
    x363      __OBJ___  194
    x363      C65       -1
    x363      C107      -1
    x363      C194      -1
    x363      C395      -1
    x366      __OBJ___  238
    x366      C3        -1
    x366      C14       -1
    x366      C34       -1
    x366      C202      -1
    x367      __OBJ___  763
    x367      C50       -1
    x367      C248      -1
    x370      __OBJ___  668
    x370      C15       -1
    x370      C18       -1
    x370      C124      -1
    x370      C206      -1
    x372      __OBJ___  32
    x372      C92       -1
    x372      C166      -1
    x372      C190      -1
    x372      C315      -1
    x374      __OBJ___  211
    x374      C161      -1
    x374      C363      -1
    x375      __OBJ___  613
    x375      C216      -1
    x375      C274      -1
    x375      C279      -1
    x376      __OBJ___  429
    x376      C150      -1
    x377      __OBJ___  693
    x377      C162      -1
    x377      C296      -1
    x377      C322      -1
    x380      __OBJ___  852
    x380      C278      -1
    x380      C296      -1
    x380      C324      -1
    x382      __OBJ___  104
    x382      C52       -1
    x382      C194      -1
    x382      C228      -1
    x387      __OBJ___  546
    x387      C23       -1
    x387      C320      -1
    x389      __OBJ___  203
    x389      C105      -1
    x389      C247      -1
    x389      C265      -1
    x389      C373      -1
    x390      __OBJ___  92
    x390      C222      -1
    x390      C258      -1
    x390      C359      -1
    x391      __OBJ___  74
    x391      C92       -1
    x391      C129      -1
    x391      C333      -1
    x393      __OBJ___  212
    x393      C53       -1
    x393      C111      -1
    x393      C260      -1
    x394      __OBJ___  339
    x394      C23       -1
    x394      C60       -1
    x394      C86       -1
    x396      __OBJ___  357
    x396      C67       -1
    x396      C280      -1
    x396      C347      -1
    x397      __OBJ___  128
    x397      C180      -1
    x397      C240      -1
    MARKER    'MARKER'                 'INTEND'
RHS
    RHS       __OBJ___  -16209
    RHS       C0        -1
    RHS       C1        -1
    RHS       C2        -1
    RHS       C3        -1
    RHS       C4        -1
    RHS       C7        -1
    RHS       C8        -1
    RHS       C13       -1
    RHS       C14       -1
    RHS       C15       -1
    RHS       C17       -1
    RHS       C18       -1
    RHS       C21       -1
    RHS       C22       -1
    RHS       C23       -1
    RHS       C24       -1
    RHS       C26       -1
    RHS       C30       -1
    RHS       C34       -1
    RHS       C35       -1
    RHS       C37       -1
    RHS       C39       -1
    RHS       C43       -1
    RHS       C45       -1
    RHS       C47       -1
    RHS       C50       -1
    RHS       C51       -1
    RHS       C52       -1
    RHS       C53       -1
    RHS       C54       -1
    RHS       C59       -1
    RHS       C60       -1
    RHS       C62       -1
    RHS       C63       -1
    RHS       C65       -1
    RHS       C66       -1
    RHS       C67       -1
    RHS       C70       -1
    RHS       C71       -1
    RHS       C72       -1
    RHS       C80       -1
    RHS       C84       -1
    RHS       C85       -1
    RHS       C86       -1
    RHS       C87       -1
    RHS       C88       -1
    RHS       C90       -1
    RHS       C92       -1
    RHS       C93       -1
    RHS       C94       -1
    RHS       C95       -1
    RHS       C96       -1
    RHS       C100      -1
    RHS       C102      -1
    RHS       C105      -1
    RHS       C106      -1
    RHS       C107      -1
    RHS       C108      -1
    RHS       C109      -1
    RHS       C111      -1
    RHS       C112      -1
    RHS       C115      -1
    RHS       C116      -1
    RHS       C117      -1
    RHS       C119      -1
    RHS       C121      -1
    RHS       C122      -1
    RHS       C123      -1
    RHS       C124      -1
    RHS       C126      -1
    RHS       C128      -1
    RHS       C129      -1
    RHS       C130      -1
    RHS       C133      -1
    RHS       C135      -1
    RHS       C137      -1
    RHS       C138      -1
    RHS       C140      -1
    RHS       C141      -1
    RHS       C143      -1
    RHS       C145      -1
    RHS       C149      -1
    RHS       C150      -1
    RHS       C153      -1
    RHS       C154      -1
    RHS       C155      -1
    RHS       C157      -1
    RHS       C158      -1
    RHS       C159      -1
    RHS       C160      -1
    RHS       C161      -1
    RHS       C162      -1
    RHS       C163      -1
    RHS       C165      -1
    RHS       C166      -1
    RHS       C171      -1
    RHS       C172      -1
    RHS       C173      -1
    RHS       C174      -1
    RHS       C177      -1
    RHS       C179      -1
    RHS       C180      -1
    RHS       C181      -1
    RHS       C182      -1
    RHS       C185      -1
    RHS       C187      -1
    RHS       C190      -1
    RHS       C192      -1
    RHS       C194      -1
    RHS       C201      -1
    RHS       C202      -1
    RHS       C204      -1
    RHS       C205      -1
    RHS       C206      -1
    RHS       C210      -1
    RHS       C212      -1
    RHS       C213      -1
    RHS       C216      -1
    RHS       C222      -1
    RHS       C223      -1
    RHS       C224      -1
    RHS       C227      -1
    RHS       C228      -1
    RHS       C229      -1
    RHS       C232      -1
    RHS       C233      -1
    RHS       C234      -1
    RHS       C236      -1
    RHS       C237      -1
    RHS       C239      -1
    RHS       C240      -1
    RHS       C244      -1
    RHS       C245      -1
    RHS       C247      -1
    RHS       C248      -1
    RHS       C250      -1
    RHS       C251      -1
    RHS       C253      -1
    RHS       C258      -1
    RHS       C260      -1
    RHS       C262      -1
    RHS       C263      -1
    RHS       C264      -1
    RHS       C265      -1
    RHS       C268      -1
    RHS       C269      -1
    RHS       C271      -1
    RHS       C274      -1
    RHS       C276      -1
    RHS       C278      -1
    RHS       C279      -1
    RHS       C280      -1
    RHS       C281      -1
    RHS       C282      -1
    RHS       C285      -1
    RHS       C286      -1
    RHS       C287      -1
    RHS       C288      -1
    RHS       C289      -1
    RHS       C290      -1
    RHS       C295      -1
    RHS       C296      -1
    RHS       C297      -1
    RHS       C301      -1
    RHS       C302      -1
    RHS       C303      -1
    RHS       C304      -1
    RHS       C307      -1
    RHS       C309      -1
    RHS       C311      -1
    RHS       C313      -1
    RHS       C315      -1
    RHS       C318      -1
    RHS       C319      -1
    RHS       C320      -1
    RHS       C322      -1
    RHS       C323      -1
    RHS       C324      -1
    RHS       C331      -1
    RHS       C332      -1
    RHS       C333      -1
    RHS       C334      -1
    RHS       C335      -1
    RHS       C337      -1
    RHS       C338      -1
    RHS       C339      -1
    RHS       C341      -1
    RHS       C343      -1
    RHS       C344      -1
    RHS       C347      -1
    RHS       C348      -1
    RHS       C352      -1
    RHS       C354      -1
    RHS       C357      -1
    RHS       C359      -1
    RHS       C360      -1
    RHS       C361      -1
    RHS       C363      -1
    RHS       C364      -1
    RHS       C365      -1
    RHS       C369      -1
    RHS       C370      -1
    RHS       C371      -1
    RHS       C372      -1
    RHS       C373      -1
    RHS       C377      -1
    RHS       C378      -1
    RHS       C380      -1
    RHS       C384      -1
    RHS       C385      -1
    RHS       C389      -1
    RHS       C390      -1
    RHS       C394      -1
    RHS       C395      -1
    RHS       C397      -1
    RHS       C398      -1
BOUNDS
 UP BOUND     x1        1
 UP BOUND     x2        1
 UP BOUND     x3        1
 UP BOUND     x4        1
 UP BOUND     x6        1
 UP BOUND     x7        1
 UP BOUND     x8        1
 UP BOUND     x9        1
 UP BOUND     x10       1
 UP BOUND     x13       1
 UP BOUND     x14       1
 UP BOUND     x15       1
 UP BOUND     x16       1
 UP BOUND     x20       1
 UP BOUND     x25       1
 UP BOUND     x26       1
 UP BOUND     x27       1
 UP BOUND     x30       1
 UP BOUND     x32       1
 UP BOUND     x36       1
 UP BOUND     x38       1
 UP BOUND     x39       1
 UP BOUND     x40       1
 UP BOUND     x43       1
 UP BOUND     x47       1
 UP BOUND     x49       1
 UP BOUND     x51       1
 UP BOUND     x53       1
 UP BOUND     x54       1
 UP BOUND     x57       1
 UP BOUND     x58       1
 UP BOUND     x59       1
 UP BOUND     x61       1
 UP BOUND     x62       1
 UP BOUND     x67       1
 UP BOUND     x68       1
 UP BOUND     x69       1
 UP BOUND     x73       1
 UP BOUND     x77       1
 UP BOUND     x78       1
 UP BOUND     x79       1
 UP BOUND     x80       1
 UP BOUND     x82       1
 UP BOUND     x83       1
 UP BOUND     x87       1
 UP BOUND     x90       1
 UP BOUND     x92       1
 UP BOUND     x93       1
 UP BOUND     x96       1
 UP BOUND     x97       1
 UP BOUND     x98       1
 UP BOUND     x99       1
 UP BOUND     x100      1
 UP BOUND     x101      1
 UP BOUND     x102      1
 UP BOUND     x103      1
 UP BOUND     x105      1
 UP BOUND     x106      1
 UP BOUND     x108      1
 UP BOUND     x109      1
 UP BOUND     x110      1
 UP BOUND     x111      1
 UP BOUND     x112      1
 UP BOUND     x113      1
 UP BOUND     x116      1
 UP BOUND     x117      1
 UP BOUND     x119      1
 UP BOUND     x120      1
 UP BOUND     x122      1
 UP BOUND     x126      1
 UP BOUND     x127      1
 UP BOUND     x128      1
 UP BOUND     x129      1
 UP BOUND     x132      1
 UP BOUND     x133      1
 UP BOUND     x137      1
 UP BOUND     x138      1
 UP BOUND     x143      1
 UP BOUND     x144      1
 UP BOUND     x147      1
 UP BOUND     x152      1
 UP BOUND     x154      1
 UP BOUND     x155      1
 UP BOUND     x158      1
 UP BOUND     x159      1
 UP BOUND     x160      1
 UP BOUND     x161      1
 UP BOUND     x162      1
 UP BOUND     x164      1
 UP BOUND     x165      1
 UP BOUND     x168      1
 UP BOUND     x171      1
 UP BOUND     x172      1
 UP BOUND     x174      1
 UP BOUND     x175      1
 UP BOUND     x176      1
 UP BOUND     x177      1
 UP BOUND     x178      1
 UP BOUND     x179      1
 UP BOUND     x180      1
 UP BOUND     x183      1
 UP BOUND     x187      1
 UP BOUND     x189      1
 UP BOUND     x190      1
 UP BOUND     x192      1
 UP BOUND     x194      1
 UP BOUND     x195      1
 UP BOUND     x196      1
 UP BOUND     x197      1
 UP BOUND     x198      1
 UP BOUND     x200      1
 UP BOUND     x202      1
 UP BOUND     x203      1
 UP BOUND     x204      1
 UP BOUND     x205      1
 UP BOUND     x206      1
 UP BOUND     x207      1
 UP BOUND     x208      1
 UP BOUND     x209      1
 UP BOUND     x210      1
 UP BOUND     x211      1
 UP BOUND     x212      1
 UP BOUND     x213      1
 UP BOUND     x214      1
 UP BOUND     x216      1
 UP BOUND     x217      1
 UP BOUND     x219      1
 UP BOUND     x220      1
 UP BOUND     x223      1
 UP BOUND     x225      1
 UP BOUND     x226      1
 UP BOUND     x227      1
 UP BOUND     x229      1
 UP BOUND     x230      1
 UP BOUND     x231      1
 UP BOUND     x234      1
 UP BOUND     x235      1
 UP BOUND     x236      1
 UP BOUND     x240      1
 UP BOUND     x242      1
 UP BOUND     x243      1
 UP BOUND     x245      1
 UP BOUND     x246      1
 UP BOUND     x248      1
 UP BOUND     x251      1
 UP BOUND     x254      1
 UP BOUND     x256      1
 UP BOUND     x260      1
 UP BOUND     x263      1
 UP BOUND     x264      1
 UP BOUND     x266      1
 UP BOUND     x268      1
 UP BOUND     x270      1
 UP BOUND     x272      1
 UP BOUND     x273      1
 UP BOUND     x275      1
 UP BOUND     x279      1
 UP BOUND     x281      1
 UP BOUND     x282      1
 UP BOUND     x283      1
 UP BOUND     x284      1
 UP BOUND     x285      1
 UP BOUND     x288      1
 UP BOUND     x289      1
 UP BOUND     x295      1
 UP BOUND     x298      1
 UP BOUND     x301      1
 UP BOUND     x302      1
 UP BOUND     x303      1
 UP BOUND     x304      1
 UP BOUND     x305      1
 UP BOUND     x306      1
 UP BOUND     x312      1
 UP BOUND     x315      1
 UP BOUND     x316      1
 UP BOUND     x317      1
 UP BOUND     x318      1
 UP BOUND     x319      1
 UP BOUND     x320      1
 UP BOUND     x321      1
 UP BOUND     x323      1
 UP BOUND     x325      1
 UP BOUND     x327      1
 UP BOUND     x329      1
 UP BOUND     x331      1
 UP BOUND     x334      1
 UP BOUND     x335      1
 UP BOUND     x338      1
 UP BOUND     x340      1
 UP BOUND     x344      1
 UP BOUND     x346      1
 UP BOUND     x348      1
 UP BOUND     x349      1
 UP BOUND     x351      1
 UP BOUND     x354      1
 UP BOUND     x355      1
 UP BOUND     x356      1
 UP BOUND     x358      1
 UP BOUND     x362      1
 UP BOUND     x363      1
 UP BOUND     x366      1
 UP BOUND     x367      1
 UP BOUND     x370      1
 UP BOUND     x372      1
 UP BOUND     x374      1
 UP BOUND     x375      1
 UP BOUND     x376      1
 UP BOUND     x377      1
 UP BOUND     x380      1
 UP BOUND     x382      1
 UP BOUND     x387      1
 UP BOUND     x389      1
 UP BOUND     x390      1
 UP BOUND     x391      1
 UP BOUND     x393      1
 UP BOUND     x394      1
 UP BOUND     x396      1
 UP BOUND     x397      1
ENDATA
